experiments/sat_smt/run/sat-r+/results/andy.res
solved=true
solvingTime=5.8346691131591796875
nActions=6