experiments/sat_smt/run/sat-r+/results/andy.out
Timesteps: 1
s UNSATISFIABLE
real 0.13
user 0.02
sys 0.00
Timesteps: 2
s UNSATISFIABLE
real 0.20
user 0.05
sys 0.00
Timesteps: 3
s UNSATISFIABLE
real 0.32
user 0.14
sys 0.01
Timesteps: 4
s UNSATISFIABLE
real 0.79
user 0.65
sys 0.01
Timesteps: 5
s UNSATISFIABLE
real 2.40
user 2.03
sys 0.02
Timesteps: 6
s SATISFIABLE
real 1.92
user 1.72
sys 0.02
